20
0 1 0.77 0.36
0 2 0.34 0.34
0 3 0.64 0.39
0 4 0.05 0.05
0 5 0.66 0.24
0 6 0.64 0.35
0 7 0.2 0.2
0 8 0.52 0.42
0 9 0.8 0.34
0 10 0.14 0.14
0 11 0.52 0.52
0 12 0.26 0.26
0 13 0.29 0.29
0 14 0.74 0.34
0 15 0.18 0.18
0 16 0.29 0.29
0 17 0.59 0.38
0 18 0.6 0.32
0 19 0.39 0.39
1 2 0.17 0.17
1 3 0.41 0.2
1 4 0.31 0.31
1 5 0.16 0.16
1 6 0.27 0.27
1 7 0.38 0.38
1 8 0.57 0.36
1 9 0.72 0.06
1 10 0.3 0.3
1 11 0.37 0.37
1 12 0.54 0.18
1 13 0.41 0.41
1 14 0.26 0.26
1 15 0.33 0.33
1 16 0.3 0.3
1 17 0.31 0.28
1 18 0.78 0.41
1 19 0.28 0.26
2 3 0.34 0.34
2 4 0.7 0.39
2 5 0.72 0.28
2 6 0.35 0.35
2 7 0.41 0.33
2 8 0.69 0.45
2 9 0.23 0.23
2 10 0.51 0.25
2 11 0.4 0.2
2 12 0.75 0.16
2 13 0.56 0.24
2 14 0.62 0.38
2 15 0.16 0.16
2 16 0.37 0.27
2 17 0.28 0.28
2 18 0.58 0.43
2 19 0.34 0.34
3 4 0.68 0.34
3 5 0.76 0.29
3 6 0.8 0.4
3 7 0.36 0.36
3 8 0.42 0.42
3 9 0.36 0.19
3 10 0.8 0.48
3 11 0.53 0.53
3 12 0.42 0.36
3 13 0.32 0.32
3 14 0.7 0.39
3 15 0.68 0.5
3 16 0.8 0.1
3 17 0.65 0.41
3 18 0.63 0.34
3 19 0.52 0.46
4 5 0.29 0.29
4 6 0.4 0.4
4 7 0.62 0.25
4 8 0.7 0.4
4 9 0.64 0.37
4 10 0.19 0.19
4 11 0.64 0.54
4 12 0.31 0.31
4 13 0.34 0.34
4 14 0.6 0.3
4 15 0.23 0.23
4 16 0.58 0.24
4 17 0.41 0.41
4 18 0.61 0.37
4 19 0.52 0.38
5 6 0.11 0.11
5 7 0.28 0.28
5 8 0.2 0.2
5 9 0.1 0.1
5 10 0.38 0.38
5 11 0.42 0.42
5 12 0.26 0.26
5 13 0.67 0.26
5 14 0.1 0.1
5 15 0.7 0.35
5 16 0.78 0.39
5 17 0.69 0.14
5 18 0.29 0.29
5 19 0.17 0.17
6 7 0.36 0.36
6 8 0.68 0.31
6 9 0.21 0.21
6 10 0.53 0.28
6 11 0.69 0.42
6 12 0.43 0.2
6 13 0.27 0.27
6 14 0.66 0.21
6 15 0.24 0.24
6 16 0.43 0.42
6 17 0.21 0.21
6 18 0.58 0.33
6 19 0.54 0.06
7 8 0.26 0.26
7 9 0.38 0.38
7 10 0.86 0.34
7 11 0.8 0.42
7 12 0.38 0.24
7 13 0.51 0.09
7 14 0.18 0.18
7 15 0.62 0.3
7 16 0.48 0.26
7 17 0.18 0.18
7 18 0.72 0.12
7 19 0.57 0.3
8 9 0.3 0.3
8 10 0.66 0.28
8 11 0.64 0.44
8 12 0.48 0.29
8 13 0.29 0.29
8 14 0.18 0.18
8 15 0.7 0.32
8 16 0.32 0.32
8 17 0.32 0.32
8 18 0.63 0.38
8 19 0.25 0.25
9 10 0.78 0.36
9 11 0.94 0.43
9 12 0.24 0.24
9 13 0.36 0.36
9 14 0.2 0.2
9 15 0.61 0.39
9 16 0.29 0.29
9 17 0.22 0.22
9 18 0.37 0.37
9 19 0.27 0.27
10 11 0.38 0.38
10 12 0.64 0.12
10 13 0.68 0.37
10 14 0.66 0.37
10 15 0.44 0.09
10 16 0.43 0.43
10 17 0.86 0.24
10 18 0.39 0.39
10 19 0.56 0.25
11 12 0.54 0.26
11 13 0.42 0.42
11 14 0.72 0.36
11 15 0.36 0.36
11 16 0.47 0.47
11 17 0.38 0.38
11 18 0.52 0.52
11 19 0.68 0.44
12 13 0.33 0.33
12 14 0.53 0.25
12 15 0.21 0.21
12 16 0.37 0.37
12 17 0.23 0.12
12 18 0.63 0.27
12 19 0.18 0.18
13 14 0.3 0.16
13 15 0.31 0.31
13 16 0.22 0.22
13 17 0.42 0.27
13 18 0.48 0.21
13 19 0.21 0.21
14 15 0.45 0.45
14 16 0.38 0.38
14 17 0.14 0.14
14 18 0.77 0.29
14 19 0.27 0.27
15 16 0.43 0.43
15 17 0.33 0.33
15 18 0.47 0.34
15 19 0.53 0.26
16 17 0.39 0.39
16 18 0.28 0.24
16 19 0.4 0.4
17 18 0.81 0.15
17 19 0.27 0.27
18 19 0.34 0.34
